p cnf 92 591
-22 -23 0
-22 -24 0
-22 -25 0
-22 -26 0
-22 -27 0
-23 -24 0
-23 -25 0
-23 -26 0
-23 -27 0
-24 -25 0
-24 -26 0
-24 -27 0
-25 -26 0
-25 -27 0
-26 -27 0
22 23 24 25 26 27 0
-28 -29 0
-28 -30 0
-28 -31 0
-28 -32 0
-28 -33 0
-29 -30 0
-29 -31 0
-29 -32 0
-29 -33 0
-30 -31 0
-30 -32 0
-30 -33 0
-31 -32 0
-31 -33 0
-32 -33 0
28 29 30 31 32 33 0
-34 -35 0
-34 -36 0
-34 -37 0
-34 -38 0
-34 -39 0
-35 -36 0
-35 -37 0
-35 -38 0
-35 -39 0
-36 -37 0
-36 -38 0
-36 -39 0
-37 -38 0
-37 -39 0
-38 -39 0
34 35 36 37 38 39 0
-40 -41 0
-40 -42 0
-40 -43 0
-40 -44 0
-40 -45 0
-41 -42 0
-41 -43 0
-41 -44 0
-41 -45 0
-42 -43 0
-42 -44 0
-42 -45 0
-43 -44 0
-43 -45 0
-44 -45 0
40 41 42 43 44 45 0
-22 -28 0
-22 -34 0
-22 -40 0
-28 -34 0
-28 -40 0
-34 -40 0
-23 -29 0
-23 -35 0
-23 -41 0
-29 -35 0
-29 -41 0
-35 -41 0
-24 -30 0
-24 -36 0
-24 -42 0
-30 -36 0
-30 -42 0
-36 -42 0
-25 -31 0
-25 -37 0
-25 -43 0
-31 -37 0
-31 -43 0
-37 -43 0
-26 -32 0
-26 -38 0
-26 -44 0
-32 -38 0
-32 -44 0
-38 -44 0
-27 -33 0
-27 -39 0
-27 -45 0
-33 -39 0
-33 -45 0
-39 -45 0
1 -22 -29 0
1 -22 -35 0
1 -22 -41 0
1 -28 -23 0
1 -28 -35 0
1 -28 -41 0
1 -34 -23 0
1 -34 -29 0
1 -34 -41 0
1 -40 -23 0
1 -40 -29 0
1 -40 -35 0
2 -22 -30 0
2 -22 -36 0
2 -22 -42 0
2 -28 -24 0
2 -28 -36 0
2 -28 -42 0
2 -34 -24 0
2 -34 -30 0
2 -34 -42 0
2 -40 -24 0
2 -40 -30 0
2 -40 -36 0
3 -22 0
3 -28 0
3 -34 0
3 -40 0
4 -22 -31 0
4 -22 -37 0
4 -22 -43 0
4 -28 -25 0
4 -28 -37 0
4 -28 -43 0
4 -34 -25 0
4 -34 -31 0
4 -34 -43 0
4 -40 -25 0
4 -40 -31 0
4 -40 -37 0
5 -22 -32 0
5 -22 -38 0
5 -22 -44 0
5 -28 -26 0
5 -28 -38 0
5 -28 -44 0
5 -34 -26 0
5 -34 -32 0
5 -34 -44 0
5 -40 -26 0
5 -40 -32 0
5 -40 -38 0
6 -22 -33 0
6 -22 -39 0
6 -22 -45 0
6 -28 -27 0
6 -28 -39 0
6 -28 -45 0
6 -34 -27 0
6 -34 -33 0
6 -34 -45 0
6 -40 -27 0
6 -40 -33 0
6 -40 -39 0
7 -23 -30 0
7 -23 -36 0
7 -23 -42 0
7 -29 -24 0
7 -29 -36 0
7 -29 -42 0
7 -35 -24 0
7 -35 -30 0
7 -35 -42 0
7 -41 -24 0
7 -41 -30 0
7 -41 -36 0
8 -23 0
8 -29 0
8 -35 0
8 -41 0
9 -23 -31 0
9 -23 -37 0
9 -23 -43 0
9 -29 -25 0
9 -29 -37 0
9 -29 -43 0
9 -35 -25 0
9 -35 -31 0
9 -35 -43 0
9 -41 -25 0
9 -41 -31 0
9 -41 -37 0
10 -23 -32 0
10 -23 -38 0
10 -23 -44 0
10 -29 -26 0
10 -29 -38 0
10 -29 -44 0
10 -35 -26 0
10 -35 -32 0
10 -35 -44 0
10 -41 -26 0
10 -41 -32 0
10 -41 -38 0
11 -23 -33 0
11 -23 -39 0
11 -23 -45 0
11 -29 -27 0
11 -29 -39 0
11 -29 -45 0
11 -35 -27 0
11 -35 -33 0
11 -35 -45 0
11 -41 -27 0
11 -41 -33 0
11 -41 -39 0
12 -24 0
12 -30 0
12 -36 0
12 -42 0
13 -24 -31 0
13 -24 -37 0
13 -24 -43 0
13 -30 -25 0
13 -30 -37 0
13 -30 -43 0
13 -36 -25 0
13 -36 -31 0
13 -36 -43 0
13 -42 -25 0
13 -42 -31 0
13 -42 -37 0
14 -24 -32 0
14 -24 -38 0
14 -24 -44 0
14 -30 -26 0
14 -30 -38 0
14 -30 -44 0
14 -36 -26 0
14 -36 -32 0
14 -36 -44 0
14 -42 -26 0
14 -42 -32 0
14 -42 -38 0
15 -24 -33 0
15 -24 -39 0
15 -24 -45 0
15 -30 -27 0
15 -30 -39 0
15 -30 -45 0
15 -36 -27 0
15 -36 -33 0
15 -36 -45 0
15 -42 -27 0
15 -42 -33 0
15 -42 -39 0
16 -25 0
16 -31 0
16 -37 0
16 -43 0
17 -26 0
17 -32 0
17 -38 0
17 -44 0
18 -27 0
18 -33 0
18 -39 0
18 -45 0
19 -25 -32 0
19 -25 -38 0
19 -25 -44 0
19 -31 -26 0
19 -31 -38 0
19 -31 -44 0
19 -37 -26 0
19 -37 -32 0
19 -37 -44 0
19 -43 -26 0
19 -43 -32 0
19 -43 -38 0
20 -25 -33 0
20 -25 -39 0
20 -25 -45 0
20 -31 -27 0
20 -31 -39 0
20 -31 -45 0
20 -37 -27 0
20 -37 -33 0
20 -37 -45 0
20 -43 -27 0
20 -43 -33 0
20 -43 -39 0
21 -26 -33 0
21 -26 -39 0
21 -26 -45 0
21 -32 -27 0
21 -32 -39 0
21 -32 -45 0
21 -38 -27 0
21 -38 -33 0
21 -38 -45 0
21 -44 -27 0
21 -44 -33 0
21 -44 -39 0
-46 -47 0
-46 -48 0
-46 -49 0
-46 -50 0
-46 -51 0
-46 -52 0
-46 -53 0
-47 -48 0
-47 -49 0
-47 -50 0
-47 -51 0
-47 -52 0
-47 -53 0
-48 -49 0
-48 -50 0
-48 -51 0
-48 -52 0
-48 -53 0
-49 -50 0
-49 -51 0
-49 -52 0
-49 -53 0
-50 -51 0
-50 -52 0
-50 -53 0
-51 -52 0
-51 -53 0
-52 -53 0
46 47 48 49 50 51 52 53 0
-54 -55 0
-54 -56 0
-54 -57 0
-54 -58 0
-54 -59 0
-54 -60 0
-54 -61 0
-55 -56 0
-55 -57 0
-55 -58 0
-55 -59 0
-55 -60 0
-55 -61 0
-56 -57 0
-56 -58 0
-56 -59 0
-56 -60 0
-56 -61 0
-57 -58 0
-57 -59 0
-57 -60 0
-57 -61 0
-58 -59 0
-58 -60 0
-58 -61 0
-59 -60 0
-59 -61 0
-60 -61 0
54 55 56 57 58 59 60 61 0
-62 -63 0
-62 -64 0
-62 -65 0
-62 -66 0
-62 -67 0
-62 -68 0
-62 -69 0
-63 -64 0
-63 -65 0
-63 -66 0
-63 -67 0
-63 -68 0
-63 -69 0
-64 -65 0
-64 -66 0
-64 -67 0
-64 -68 0
-64 -69 0
-65 -66 0
-65 -67 0
-65 -68 0
-65 -69 0
-66 -67 0
-66 -68 0
-66 -69 0
-67 -68 0
-67 -69 0
-68 -69 0
62 63 64 65 66 67 68 69 0
-70 -71 0
-70 -72 0
-70 -73 0
-70 -74 0
-70 -75 0
-70 -76 0
-71 -72 0
-71 -73 0
-71 -74 0
-71 -75 0
-71 -76 0
-72 -73 0
-72 -74 0
-72 -75 0
-72 -76 0
-73 -74 0
-73 -75 0
-73 -76 0
-74 -75 0
-74 -76 0
-75 -76 0
70 71 72 73 74 75 76 0
-77 -78 0
-77 -79 0
-77 -80 0
-77 -81 0
-77 -82 0
-77 -83 0
-77 -84 0
-78 -79 0
-78 -80 0
-78 -81 0
-78 -82 0
-78 -83 0
-78 -84 0
-79 -80 0
-79 -81 0
-79 -82 0
-79 -83 0
-79 -84 0
-80 -81 0
-80 -82 0
-80 -83 0
-80 -84 0
-81 -82 0
-81 -83 0
-81 -84 0
-82 -83 0
-82 -84 0
-83 -84 0
77 78 79 80 81 82 83 84 0
-85 -86 0
-85 -87 0
-85 -88 0
-85 -89 0
-85 -90 0
-85 -91 0
-85 -92 0
-86 -87 0
-86 -88 0
-86 -89 0
-86 -90 0
-86 -91 0
-86 -92 0
-87 -88 0
-87 -89 0
-87 -90 0
-87 -91 0
-87 -92 0
-88 -89 0
-88 -90 0
-88 -91 0
-88 -92 0
-89 -90 0
-89 -91 0
-89 -92 0
-90 -91 0
-90 -92 0
-91 -92 0
85 86 87 88 89 90 91 92 0
-1 -46 -54 0
-1 -47 -55 0
-1 -48 -56 0
-1 -49 -57 0
-1 -50 -58 0
-1 -51 -59 0
-1 -52 -60 0
-1 -53 -61 0
-2 -46 -62 0
-2 -47 -63 0
-2 -48 -64 0
-2 -49 -65 0
-2 -50 -66 0
-2 -51 -67 0
-2 -52 -68 0
-2 -53 -69 0
-3 -46 -70 0
-3 -47 -71 0
-3 -48 -72 0
-3 -49 -73 0
-3 -50 -74 0
-3 -51 -75 0
-3 -52 -76 0
-4 -46 -77 0
-4 -47 -78 0
-4 -48 -79 0
-4 -49 -80 0
-4 -50 -81 0
-4 -51 -82 0
-4 -52 -83 0
-4 -53 -84 0
-5 -46 -85 0
-5 -47 -86 0
-5 -48 -87 0
-5 -49 -88 0
-5 -50 -89 0
-5 -51 -90 0
-5 -52 -91 0
-5 -53 -92 0
-6 -53 0
-7 -54 -62 0
-7 -55 -63 0
-7 -56 -64 0
-7 -57 -65 0
-7 -58 -66 0
-7 -59 -67 0
-7 -60 -68 0
-7 -61 -69 0
-8 -54 -70 0
-8 -55 -71 0
-8 -56 -72 0
-8 -57 -73 0
-8 -58 -74 0
-8 -59 -75 0
-8 -60 -76 0
-9 -54 -77 0
-9 -55 -78 0
-9 -56 -79 0
-9 -57 -80 0
-9 -58 -81 0
-9 -59 -82 0
-9 -60 -83 0
-9 -61 -84 0
-10 -54 -85 0
-10 -55 -86 0
-10 -56 -87 0
-10 -57 -88 0
-10 -58 -89 0
-10 -59 -90 0
-10 -60 -91 0
-10 -61 -92 0
-11 -61 0
-12 -62 -70 0
-12 -63 -71 0
-12 -64 -72 0
-12 -65 -73 0
-12 -66 -74 0
-12 -67 -75 0
-12 -68 -76 0
-13 -62 -77 0
-13 -63 -78 0
-13 -64 -79 0
-13 -65 -80 0
-13 -66 -81 0
-13 -67 -82 0
-13 -68 -83 0
-13 -69 -84 0
-14 -62 -85 0
-14 -63 -86 0
-14 -64 -87 0
-14 -65 -88 0
-14 -66 -89 0
-14 -67 -90 0
-14 -68 -91 0
-14 -69 -92 0
-15 -69 0
-16 -70 -77 0
-16 -71 -78 0
-16 -72 -79 0
-16 -73 -80 0
-16 -74 -81 0
-16 -75 -82 0
-16 -76 -83 0
-17 -70 -85 0
-17 -71 -86 0
-17 -72 -87 0
-17 -73 -88 0
-17 -74 -89 0
-17 -75 -90 0
-17 -76 -91 0
-19 -77 -85 0
-19 -78 -86 0
-19 -79 -87 0
-19 -80 -88 0
-19 -81 -89 0
-19 -82 -90 0
-19 -83 -91 0
-19 -84 -92 0
-20 -84 0
-21 -92 0
